Version identifier: 22.1.1.0 | 2022-11-28 | 9160aff4d
CPXPARAM_ClockType                               1
CPXPARAM_Read_DataCheck                          1
CPXPARAM_Threads                                 1
CPXPARAM_TimeLimit                               7200
CPXPARAM_MIP_Tolerances_AbsMIPGap                0
CPXPARAM_MIP_Tolerances_MIPGap                   0
CPXPARAM_MIP_Tolerances_Integrality              0
Found incumbent of value 0.000000 after 0.00 sec. (0.23 ticks)
Tried aggregator 2 times.
MIP Presolve eliminated 341 rows and 1 columns.
MIP Presolve modified 186 coefficients.
Aggregator did 150 substitutions.
Reduced MIP has 1348 rows, 749 columns, and 4022 nonzeros.
Reduced MIP has 749 binaries, 0 generals, 0 SOSs, and 0 indicators.
Presolve time = 0.00 sec. (4.79 ticks)
Probing time = 0.01 sec. (0.82 ticks)
Tried aggregator 1 time.
Detecting symmetries...
MIP Presolve eliminated 101 rows and 2 columns.
Reduced MIP has 1247 rows, 747 columns, and 3718 nonzeros.
Reduced MIP has 747 binaries, 0 generals, 0 SOSs, and 0 indicators.
Presolve time = 0.00 sec. (4.01 ticks)
Probing time = 0.01 sec. (0.73 ticks)
Clique table members: 1149.
MIP emphasis: balance optimality and feasibility.
MIP search method: dynamic search.
Parallel mode: none, using 1 thread.
Root relaxation solution time = 0.00 sec. (4.84 ticks)

        Nodes                                         Cuts/
   Node  Left     Objective  IInf  Best Integer    Best Bound    ItCnt     Gap

*     0+    0                            0.0000      150.0000              --- 
      0     0      150.0000   257        0.0000      150.0000      210     --- 
      0     0      143.0000   271        0.0000     Cuts: 282      628     --- 
      0     0      112.0000   250        0.0000     Cuts: 287      999     --- 
      0     0      100.0000   377        0.0000     Cuts: 140     1224     --- 
      0     0      100.0000   287        0.0000     Cuts: 107     1344     --- 
      0     0      100.0000   475        0.0000  ZeroHalf: 60     1483     --- 
Detecting symmetries...
      0     0      100.0000   432        0.0000       Cuts: 3     1522     --- 
      0     0      100.0000   453        0.0000  ZeroHalf: 77     1594     --- 
*     0+    0                            2.0000      100.0000              --- 
*     0+    0                            4.0000      100.0000              --- 
      0     0        cutoff              4.0000      100.0000     1594     --- 
*     0+    0                          100.0000      100.0000             0.00%
      0     0        cutoff            100.0000      100.0000     1594    0.00%
Elapsed time = 0.50 sec. (311.11 ticks, tree = 0.01 MB, solutions = 4)

GUB cover cuts applied:  9
Clique cuts applied:  4
Cover cuts applied:  287
Implied bound cuts applied:  1
Mixed integer rounding cuts applied:  2
Zero-half cuts applied:  33
Gomory fractional cuts applied:  28

Root node processing (before b&c):
  Real time             =    0.50 sec. (311.16 ticks)
Sequential b&c:
  Real time             =    0.00 sec. (0.00 ticks)
                          ------------
Total (root+branch&cut) =    0.50 sec. (311.16 ticks)
Solution is feasible.

---------------------
@@@ MIP_optimal
>>> Benchmark flat50-6.cnf k 2 OPT 100 TimeCost 0.6027176380157471 TimeSolve 0.5145597457885742 TimeRead 0.0020313262939453125 TimeTrans 0.08612656593322754
